\ENCODING=ISO-8859-1
\Problem name: ilog.cplex

Minimize
 obj1: - x_0_2 + x_0_3 + x_0_4 - x_0_5 + x_0_8 + x_0_9 + 0 x_1_4 + 0 x_1_6
       + 0 x_1_7 + x_1_9 + x_2_9 - x_2_10 - x_2_11 - x_3_11 + x_4_6 + 0 x_4_7
       + 0 x_4_9 + x_5_6 + 0 x_6_7 + 0 x_6_9 + 0 x_7_9 - x_8_10 - x_8_11 + 7
Subject To
 c1:   x_0_1 + x_0_2 - x_1_2 <= 1
 c2:   - x_0_1 + x_0_2 + x_1_2 <= 1
 c3:   x_0_1 + x_0_5 - x_1_5 <= 1
 c4:   - x_0_1 + x_0_5 + x_1_5 <= 1
 c5:   x_0_2 + x_0_3 - x_2_3 <= 1
 c6:   x_0_2 - x_0_3 + x_2_3 <= 1
 c7:   x_0_2 + x_0_4 - x_2_4 <= 1
 c8:   x_0_2 - x_0_4 + x_2_4 <= 1
 c9:   x_0_2 + x_0_5 - x_2_5 <= 1
 c10:  x_0_2 - x_0_5 + x_2_5 <= 1
 c11:  - x_0_2 + x_0_5 + x_2_5 <= 1
 c12:  x_0_2 + x_0_6 - x_2_6 <= 1
 c13:  x_0_2 - x_0_6 + x_2_6 <= 1
 c14:  x_0_2 + x_0_7 - x_2_7 <= 1
 c15:  x_0_2 - x_0_7 + x_2_7 <= 1
 c16:  x_0_2 + x_0_8 - x_2_8 <= 1
 c17:  x_0_2 - x_0_8 + x_2_8 <= 1
 c18:  x_0_2 + x_0_9 - x_2_9 <= 1
 c19:  x_0_2 - x_0_9 + x_2_9 <= 1
 c20:  x_0_2 + x_0_10 - x_2_10 <= 1
 c21:  x_0_2 - x_0_10 + x_2_10 <= 1
 c22:  - x_0_2 + x_0_10 + x_2_10 <= 1
 c23:  x_0_2 + x_0_11 - x_2_11 <= 1
 c24:  x_0_2 - x_0_11 + x_2_11 <= 1
 c25:  - x_0_2 + x_0_11 + x_2_11 <= 1
 c26:  x_0_3 + x_0_5 - x_3_5 <= 1
 c27:  - x_0_3 + x_0_5 + x_3_5 <= 1
 c28:  x_0_3 - x_0_11 + x_3_11 <= 1
 c29:  - x_0_3 + x_0_11 + x_3_11 <= 1
 c30:  x_0_4 + x_0_5 - x_4_5 <= 1
 c31:  - x_0_4 + x_0_5 + x_4_5 <= 1
 c32:  x_0_5 + x_0_6 - x_5_6 <= 1
 c33:  x_0_5 - x_0_6 + x_5_6 <= 1
 c34:  x_0_5 + x_0_7 - x_5_7 <= 1
 c35:  x_0_5 - x_0_7 + x_5_7 <= 1
 c36:  x_0_5 + x_0_8 - x_5_8 <= 1
 c37:  x_0_5 - x_0_8 + x_5_8 <= 1
 c38:  x_0_5 + x_0_9 - x_5_9 <= 1
 c39:  x_0_5 - x_0_9 + x_5_9 <= 1
 c40:  x_0_5 + x_0_10 - x_5_10 <= 1
 c41:  x_0_5 - x_0_10 + x_5_10 <= 1
 c42:  x_0_5 + x_0_11 - x_5_11 <= 1
 c43:  x_0_5 - x_0_11 + x_5_11 <= 1
 c44:  x_0_8 - x_0_10 + x_8_10 <= 1
 c45:  - x_0_8 + x_0_10 + x_8_10 <= 1
 c46:  x_0_8 - x_0_11 + x_8_11 <= 1
 c47:  - x_0_8 + x_0_11 + x_8_11 <= 1
 c48:  x_1_2 - x_1_10 + x_2_10 <= 1
 c49:  - x_1_2 + x_1_10 + x_2_10 <= 1
 c50:  x_1_2 - x_1_11 + x_2_11 <= 1
 c51:  - x_1_2 + x_1_11 + x_2_11 <= 1
 c52:  x_1_3 - x_1_11 + x_3_11 <= 1
 c53:  - x_1_3 + x_1_11 + x_3_11 <= 1
 c54:  x_1_8 - x_1_10 + x_8_10 <= 1
 c55:  - x_1_8 + x_1_10 + x_8_10 <= 1
 c56:  x_1_8 - x_1_11 + x_8_11 <= 1
 c57:  - x_1_8 + x_1_11 + x_8_11 <= 1
 c58:  x_2_3 + x_2_10 - x_3_10 <= 1
 c59:  - x_2_3 + x_2_10 + x_3_10 <= 1
 c60:  x_2_3 + x_2_11 - x_3_11 <= 1
 c61:  x_2_3 - x_2_11 + x_3_11 <= 1
 c62:  - x_2_3 + x_2_11 + x_3_11 <= 1
 c63:  x_2_4 + x_2_10 - x_4_10 <= 1
 c64:  - x_2_4 + x_2_10 + x_4_10 <= 1
 c65:  x_2_4 + x_2_11 - x_4_11 <= 1
 c66:  - x_2_4 + x_2_11 + x_4_11 <= 1
 c67:  x_2_5 + x_2_10 - x_5_10 <= 1
 c68:  - x_2_5 + x_2_10 + x_5_10 <= 1
 c69:  x_2_5 + x_2_11 - x_5_11 <= 1
 c70:  - x_2_5 + x_2_11 + x_5_11 <= 1
 c71:  x_2_6 + x_2_10 - x_6_10 <= 1
 c72:  - x_2_6 + x_2_10 + x_6_10 <= 1
 c73:  x_2_6 + x_2_11 - x_6_11 <= 1
 c74:  - x_2_6 + x_2_11 + x_6_11 <= 1
 c75:  x_2_7 + x_2_10 - x_7_10 <= 1
 c76:  - x_2_7 + x_2_10 + x_7_10 <= 1
 c77:  x_2_7 + x_2_11 - x_7_11 <= 1
 c78:  - x_2_7 + x_2_11 + x_7_11 <= 1
 c79:  x_2_8 + x_2_10 - x_8_10 <= 1
 c80:  x_2_8 - x_2_10 + x_8_10 <= 1
 c81:  - x_2_8 + x_2_10 + x_8_10 <= 1
 c82:  x_2_8 + x_2_11 - x_8_11 <= 1
 c83:  x_2_8 - x_2_11 + x_8_11 <= 1
 c84:  - x_2_8 + x_2_11 + x_8_11 <= 1
 c85:  x_2_9 + x_2_10 - x_9_10 <= 1
 c86:  - x_2_9 + x_2_10 + x_9_10 <= 1
 c87:  x_2_9 + x_2_11 - x_9_11 <= 1
 c88:  - x_2_9 + x_2_11 + x_9_11 <= 1
 c89:  - x_10_11 + x_2_10 + x_2_11 <= 1
 c90:  x_10_11 + x_2_10 - x_2_11 <= 1
 c91:  x_10_11 - x_2_10 + x_2_11 <= 1
 c92:  x_3_4 + x_3_11 - x_4_11 <= 1
 c93:  - x_3_4 + x_3_11 + x_4_11 <= 1
 c94:  x_3_5 + x_3_11 - x_5_11 <= 1
 c95:  - x_3_5 + x_3_11 + x_5_11 <= 1
 c96:  x_3_6 + x_3_11 - x_6_11 <= 1
 c97:  - x_3_6 + x_3_11 + x_6_11 <= 1
 c98:  x_3_7 + x_3_11 - x_7_11 <= 1
 c99:  - x_3_7 + x_3_11 + x_7_11 <= 1
 c100: x_3_8 - x_3_10 + x_8_10 <= 1
 c101: - x_3_8 + x_3_10 + x_8_10 <= 1
 c102: x_3_8 + x_3_11 - x_8_11 <= 1
 c103: x_3_8 - x_3_11 + x_8_11 <= 1
 c104: - x_3_8 + x_3_11 + x_8_11 <= 1
 c105: x_3_9 + x_3_11 - x_9_11 <= 1
 c106: - x_3_9 + x_3_11 + x_9_11 <= 1
 c107: - x_10_11 + x_3_10 + x_3_11 <= 1
 c108: x_10_11 - x_3_10 + x_3_11 <= 1
 c109: x_4_8 - x_4_10 + x_8_10 <= 1
 c110: - x_4_8 + x_4_10 + x_8_10 <= 1
 c111: x_4_8 - x_4_11 + x_8_11 <= 1
 c112: - x_4_8 + x_4_11 + x_8_11 <= 1
 c113: x_5_8 - x_5_10 + x_8_10 <= 1
 c114: - x_5_8 + x_5_10 + x_8_10 <= 1
 c115: x_5_8 - x_5_11 + x_8_11 <= 1
 c116: - x_5_8 + x_5_11 + x_8_11 <= 1
 c117: x_6_8 - x_6_10 + x_8_10 <= 1
 c118: - x_6_8 + x_6_10 + x_8_10 <= 1
 c119: x_6_8 - x_6_11 + x_8_11 <= 1
 c120: - x_6_8 + x_6_11 + x_8_11 <= 1
 c121: x_7_8 - x_7_10 + x_8_10 <= 1
 c122: - x_7_8 + x_7_10 + x_8_10 <= 1
 c123: x_7_8 - x_7_11 + x_8_11 <= 1
 c124: - x_7_8 + x_7_11 + x_8_11 <= 1
 c125: x_8_9 + x_8_10 - x_9_10 <= 1
 c126: - x_8_9 + x_8_10 + x_9_10 <= 1
 c127: x_8_9 + x_8_11 - x_9_11 <= 1
 c128: - x_8_9 + x_8_11 + x_9_11 <= 1
 c129: - x_10_11 + x_8_10 + x_8_11 <= 1
 c130: x_10_11 + x_8_10 - x_8_11 <= 1
 c131: x_10_11 - x_8_10 + x_8_11 <= 1
Bounds
 0 <= x_0_1 <= 1
 0 <= x_0_2 <= 1
 0 <= x_0_3 <= 1
 0 <= x_10_11 <= 1
 0 <= x_0_4 <= 1
 0 <= x_0_5 <= 1
 0 <= x_0_6 <= 1
 0 <= x_0_7 <= 1
 0 <= x_0_8 <= 1
 0 <= x_0_9 <= 1
 0 <= x_0_10 <= 1
 0 <= x_0_11 <= 1
 0 <= x_1_2 <= 1
 0 <= x_1_3 <= 1
 0 <= x_1_4 <= 1
 0 <= x_1_5 <= 1
 0 <= x_1_6 <= 1
 0 <= x_1_7 <= 1
 0 <= x_1_8 <= 1
 0 <= x_1_9 <= 1
 0 <= x_1_10 <= 1
 0 <= x_1_11 <= 1
 0 <= x_2_3 <= 1
 0 <= x_2_4 <= 1
 0 <= x_2_5 <= 1
 0 <= x_2_6 <= 1
 0 <= x_2_7 <= 1
 0 <= x_2_8 <= 1
 0 <= x_2_9 <= 1
 0 <= x_2_10 <= 1
 0 <= x_2_11 <= 1
 0 <= x_3_4 <= 1
 0 <= x_3_5 <= 1
 0 <= x_3_6 <= 1
 0 <= x_3_7 <= 1
 0 <= x_3_8 <= 1
 0 <= x_3_9 <= 1
 0 <= x_3_10 <= 1
 0 <= x_3_11 <= 1
 0 <= x_4_5 <= 1
 0 <= x_4_6 <= 1
 0 <= x_4_7 <= 1
 0 <= x_4_8 <= 1
 0 <= x_4_9 <= 1
 0 <= x_4_10 <= 1
 0 <= x_4_11 <= 1
 0 <= x_5_6 <= 1
 0 <= x_5_7 <= 1
 0 <= x_5_8 <= 1
 0 <= x_5_9 <= 1
 0 <= x_5_10 <= 1
 0 <= x_5_11 <= 1
 0 <= x_6_7 <= 1
 0 <= x_6_8 <= 1
 0 <= x_6_9 <= 1
 0 <= x_6_10 <= 1
 0 <= x_6_11 <= 1
 0 <= x_7_8 <= 1
 0 <= x_7_9 <= 1
 0 <= x_7_10 <= 1
 0 <= x_7_11 <= 1
 0 <= x_8_9 <= 1
 0 <= x_8_10 <= 1
 0 <= x_8_11 <= 1
 0 <= x_9_10 <= 1
 0 <= x_9_11 <= 1
Generals
 x_0_1  x_0_2  x_0_3  x_10_11  x_0_4  x_0_5  x_0_6  x_0_7  x_0_8  x_0_9 
 x_0_10  x_0_11  x_1_2  x_1_3  x_1_4  x_1_5  x_1_6  x_1_7  x_1_8  x_1_9 
 x_1_10  x_1_11  x_2_3  x_2_4  x_2_5  x_2_6  x_2_7  x_2_8  x_2_9  x_2_10 
 x_2_11  x_3_4  x_3_5  x_3_6  x_3_7  x_3_8  x_3_9  x_3_10  x_3_11  x_4_5 
 x_4_6  x_4_7  x_4_8  x_4_9  x_4_10  x_4_11  x_5_6  x_5_7  x_5_8  x_5_9 
 x_5_10  x_5_11  x_6_7  x_6_8  x_6_9  x_6_10  x_6_11  x_7_8  x_7_9  x_7_10 
 x_7_11  x_8_9  x_8_10  x_8_11  x_9_10  x_9_11 
End
